words_hard_train/9784.qaiger
aag 73 16 0 1 57
2
4
8
10
16
20
24
26
32
34
38
42
46
50
54
88
146
6 3 5
12 9 11
14 6 12
18 14 17
22 18 20
28 25 27
30 22 28
36 33 35
40 36 39
44 40 43
48 44 47
52 48 51
56 52 55
58 53 54
60 57 59
62 61 21
64 49 50
66 65 53
68 66 4
70 63 69
72 67 5
74 45 46
76 75 49
78 77 17
80 73 79
82 37 38
84 83 41
86 85 11
90 88 24
92 32 8
94 91 93
96 33 9
98 95 97
100 32 34
102 101 37
104 103 27
106 98 105
108 84 10
110 107 109
112 102 26
114 110 113
116 87 115
118 41 42
120 119 45
122 121 3
124 116 123
126 76 16
128 125 127
130 120 2
132 128 131
134 80 133
136 70 135
138 60 20
140 137 139
142 30 141
144 31 140
146 143 145
i0 1 x2[4]
i1 1 x2[6]
i2 1 x2[1]
i3 1 x2[3]
i4 1 x2[5]
i5 1 x2[7]
i6 1 x2[0]
i7 1 x2[2]
i8 2 y2[1]
i9 2 y2[2]
i10 2 y2[3]
i11 2 y2[4]
i12 2 y2[5]
i13 2 y2[6]
i14 2 y2[7]
i15 2 y2[0]
o0 bv[0]
c
simplified
  <
    xor
      subtract
        1
        2 y2
      1
    unary minus
      1 x2
