words_hard_train/9784.qaiger.qdimacs
p cnf 73 172
a 1 2 4 5 8 10 12 13 0
e 3 6 7 9 11 14 15 16 17 18 19 20 21 22 23 24 25 26 27 28 29 30 31 32 33 34 35 36 37 38 39 40 41 42 43 44 45 46 47 48 49 50 51 52 53 54 55 56 57 58 59 60 61 62 63 64 65 66 67 68 69 70 71 72 73 0
1 2 3 0
-1 -3 0
-2 -3 0
4 5 6 0
-4 -6 0
-5 -6 0
-3 -6 7 0
3 -7 0
6 -7 0
-7 8 9 0
7 -9 0
-8 -9 0
-9 -10 11 0
9 -11 0
10 -11 0
12 13 14 0
-12 -14 0
-13 -14 0
-11 -14 15 0
11 -15 0
14 -15 0
16 17 18 0
-16 -18 0
-17 -18 0
-18 19 20 0
18 -20 0
-19 -20 0
-20 21 22 0
20 -22 0
-21 -22 0
-22 23 24 0
22 -24 0
-23 -24 0
-24 25 26 0
24 -26 0
-25 -26 0
-26 27 28 0
26 -28 0
-27 -28 0
26 -27 29 0
-26 -29 0
27 -29 0
28 29 30 0
-28 -30 0
-29 -30 0
30 10 31 0
-30 -31 0
-10 -31 0
24 -25 32 0
-24 -32 0
25 -32 0
32 26 33 0
-32 -33 0
-26 -33 0
-33 -2 34 0
33 -34 0
2 -34 0
31 34 35 0
-31 -35 0
-34 -35 0
33 2 36 0
-33 -36 0
-2 -36 0
22 -23 37 0
-22 -37 0
23 -37 0
37 24 38 0
-37 -38 0
-24 -38 0
38 8 39 0
-38 -39 0
-8 -39 0
36 39 40 0
-36 -40 0
-39 -40 0
18 -19 41 0
-18 -41 0
19 -41 0
41 20 42 0
-41 -42 0
-20 -42 0
42 5 43 0
-42 -43 0
-5 -43 0
-44 -12 45 0
44 -45 0
12 -45 0
-16 -4 46 0
16 -46 0
4 -46 0
45 46 47 0
-45 -47 0
-46 -47 0
16 4 48 0
-16 -48 0
-4 -48 0
47 48 49 0
-47 -49 0
-48 -49 0
-16 -17 50 0
16 -50 0
17 -50 0
50 18 51 0
-50 -51 0
-18 -51 0
51 13 52 0
-51 -52 0
-13 -52 0
-49 52 53 0
49 -53 0
-52 -53 0
-42 -5 54 0
42 -54 0
5 -54 0
53 54 55 0
-53 -55 0
-54 -55 0
-51 -13 56 0
51 -56 0
13 -56 0
-55 56 57 0
55 -57 0
-56 -57 0
43 57 58 0
-43 -58 0
-57 -58 0
20 -21 59 0
-20 -59 0
21 -59 0
59 22 60 0
-59 -60 0
-22 -60 0
60 1 61 0
-60 -61 0
-1 -61 0
-58 61 62 0
58 -62 0
-61 -62 0
-38 -8 63 0
38 -63 0
8 -63 0
62 63 64 0
-62 -64 0
-63 -64 0
-60 -1 65 0
60 -65 0
1 -65 0
-64 65 66 0
64 -66 0
-65 -66 0
-40 66 67 0
40 -67 0
-66 -67 0
-35 67 68 0
35 -68 0
-67 -68 0
-30 -10 69 0
30 -69 0
10 -69 0
68 69 70 0
-68 -70 0
-69 -70 0
-15 70 71 0
15 -71 0
-70 -71 0
15 -70 72 0
-15 -72 0
70 -72 0
71 72 73 0
-71 -73 0
-72 -73 0
73 0
